200
500
350
348
346
346
346
345
344
343
339
336
336
331
331
323
323
323
322
321
319
319
318
317
317
314
314
312
311
308
305
305
304
303
301
300
299
299
296
296
295
294
293
290
289
289
288
288
288
288
286
284
283
283
281
281
279
276
276
276
276
275
273
273
271
269
266
266
265
263
261
260
260
257
257
255
254
252
252
250
250
249
248
245
244
243
243
239
237
237
235
233
232
232
232
230
227
227
226
221
221
218
218
215
214
213
211
210
209
209
207
207
207
205
202
200
200
199
198
196
195
193
191
190
190
189
188
187
186
186
184
182
182
181
181
179
178
175
173
172
167
166
165
165
163
163
162
161
161
160
159
155
153
151
151
151
150
148
148
143
141
141
141
140
137
137
136
136
135
134
134
132
132
132
131
129
129
128
128
126
126
124
122
121
121
119
118
116
114
112
112
111
110
107
107
107
105
103
103
102
100
100
